c random clauses
p cnf 13 32
-13 -12 2 3 5 6 7 10 0
-13 -11 -9 -7 -5 -3 1 4 0
-13 -11 -9 -6 -5 -3 1 8 0
-13 -11 -7 -3 -2 -1 5 8 0
-13 -11 -3 -2 4 5 7 8 0
-13 -9 -6 1 2 8 10 12 0
-13 -9 1 4 5 6 11 12 0
-13 -8 -4 -1 6 9 10 12 0
-13 -7 -4 -3 2 9 10 11 0
-13 -5 1 2 3 8 10 12 0
-12 -11 -9 1 3 5 7 8 0
-12 -10 -5 1 2 4 9 11 0
-12 -9 -6 -1 2 5 8 10 0
-12 -9 -4 -3 -2 5 10 11 0
-12 -9 -4 -2 3 6 8 11 0
-12 -7 -5 -2 -1 4 10 11 0
-12 -2 -1 3 4 6 7 13 0
-12 2 4 5 6 7 11 13 0
-11 -10 -3 5 6 7 8 13 0
-11 -9 -7 -6 -5 -2 3 10 0
-11 -9 -3 2 4 6 8 13 0
-11 -4 1 2 3 5 6 10 0
-10 -9 -5 -4 -3 -1 8 12 0
-10 -7 -2 1 3 6 11 12 0
-10 -6 -2 1 3 7 9 13 0
-9 -8 -7 -5 -1 2 3 11 0
-9 -2 3 4 5 7 11 12 0
-8 -7 2 3 4 5 9 10 0
-8 -2 5 9 10 11 12 13 0
-7 -4 -1 3 5 6 8 11 0
-6 -2 1 3 5 7 11 12 0
-4 -1 3 5 6 8 10 13 0
